&inputph
tr2_ph = 1.0d-14
prefix = 'mos2_pristine'
outdir = './out'
fildyn = 'mos2.dyn'
ldisp = .false.
lraman = .true.
epsil = .true.
/