&control
calculation='scf',
prefix='mos2_sc',
outdir='./out',
pseudo_dir='./pseudo',
tprnfor=.true.
/
&system
ibrav=0,
nat=12,
ntyp=2,
ecutwfc=50.0,
ecutrho=400.0,
occupations='smearing',
smearing='gaussian',
degauss=0.02
/
&electrons
conv_thr=1.0d-8
/!    ibrav = 0, nat = 12, ntyp = 2
CELL_PARAMETERS bohr
   11.9430691861540428    0.0000000000000000    0.0000000000000000
    5.9715345930770214   10.3405814219359051    0.0000000000000000
    0.0000000000000000    0.0000000000000000   37.7945227409938056
ATOMIC_SPECIES
 Mo   95.96000   Mo.pbe-spn-kjpaw_psl.1.0.0.UPF
  S   32.06500   S.pbe-n-kjpaw_psl.1.0.0.UPF
ATOMIC_POSITIONS crystal
 Mo   0.0000000000000000  0.0016749053082608  0.4999999999999999
 Mo   0.5000000000000000  0.0000000000000000  0.4999999999999999
 Mo   0.0000000000000000  0.5000000000000000  0.4999999999999999
 Mo   0.5000000000000001  0.5000000000000000  0.4999999999999999
  S   0.1666665000000000  0.3333335000000000  0.4300000000000000
  S   0.6666665000000002  0.3333335000000000  0.4300000000000000
  S   0.1666665000000000  0.8333334999999999  0.4300000000000000
  S   0.6666665000000002  0.8333334999999999  0.4300000000000000
  S   0.3333335000000000  0.1666665000000000  0.5700000000000000
  S   0.8333334999999999  0.1666665000000000  0.5700000000000000
  S   0.3333335000000001  0.6666665000000001  0.5700000000000000
  S   0.8333335000000001  0.6666665000000001  0.5700000000000000