!    ibrav = 0, nat = 600, ntyp = 2
CELL_PARAMETERS bohr
   59.7153459307702121    0.0000000000000000    0.0000000000000000
   59.7153459307702121  103.4058142193590584    0.0000000000000000
    0.0000000000000000    0.0000000000000000   37.7945227409938056
ATOMIC_SPECIES
 Mo   95.96000   Mo.pbe-spn-kjpaw_psl.1.0.0.UPF
  S   32.06500   S.pbe-n-kjpaw_psl.1.0.0.UPF
ATOMIC_POSITIONS crystal
 Mo   0.0000000000000000  0.0000000000000000  0.4999999999999999
 Mo   0.1000000000000000  0.0000000000000000  0.4999999999999999
 Mo   0.2000000000000000  0.0000000000000000  0.4999999999999999
 Mo   0.3000000000000000  0.0000000000000000  0.4999999999999999
 Mo   0.4000000000000001  0.0000000000000000  0.4999999999999999
 Mo   0.5000000000000000  0.0000000000000000  0.4999999999999999
 Mo   0.6000000000000001  0.0000000000000000  0.4999999999999999
 Mo   0.7000000000000002  0.0000000000000000  0.4999999999999999
 Mo   0.8000000000000002  0.0000000000000000  0.4999999999999999
 Mo   0.9000000000000001  0.0000000000000000  0.4999999999999999
 Mo   0.0000000000000000  0.0500000000000000  0.4999999999999999
 Mo   0.1000000000000000  0.0500000000000000  0.4999999999999999
 Mo   0.2000000000000000  0.0500000000000000  0.4999999999999999
 Mo   0.3000000000000001  0.0500000000000000  0.4999999999999999
 Mo   0.4000000000000001  0.0500000000000000  0.4999999999999999
 Mo   0.5000000000000000  0.0500000000000000  0.4999999999999999
 Mo   0.6000000000000001  0.0500000000000000  0.4999999999999999
 Mo   0.7000000000000002  0.0500000000000000  0.4999999999999999
 Mo   0.8000000000000000  0.0500000000000000  0.4999999999999999
 Mo   0.9000000000000001  0.0500000000000000  0.4999999999999999
 Mo   0.0000000000000000  0.1000000000000000  0.4999999999999999
 Mo   0.1000000000000000  0.1000000000000000  0.4999999999999999
 Mo   0.2000000000000000  0.1000000000000000  0.4999999999999999
 Mo   0.3000000000000000  0.1000000000000000  0.4999999999999999
 Mo   0.4000000000000000  0.1000000000000000  0.4999999999999999
 Mo   0.5000000000000001  0.1000000000000000  0.4999999999999999
 Mo   0.6000000000000002  0.1000000000000000  0.4999999999999999
 Mo   0.7000000000000003  0.1000000000000000  0.4999999999999999
 Mo   0.8000000000000002  0.1000000000000000  0.4999999999999999
 Mo   0.9000000000000002  0.1000000000000000  0.4999999999999999
 Mo   0.0000000000000000  0.1500000000000000  0.4999999999999999
 Mo   0.1000000000000000  0.1500000000000000  0.4999999999999999
 Mo   0.2000000000000001  0.1500000000000000  0.4999999999999999
 Mo   0.3000000000000000  0.1500000000000000  0.4999999999999999
 Mo   0.4000000000000000  0.1500000000000000  0.4999999999999999
 Mo   0.5000000000000001  0.1500000000000000  0.4999999999999999
 Mo   0.6000000000000002  0.1500000000000000  0.4999999999999999
 Mo   0.7000000000000002  0.1500000000000000  0.4999999999999999
 Mo   0.8000000000000002  0.1500000000000000  0.4999999999999999
 Mo   0.9000000000000002  0.1500000000000000  0.4999999999999999
 Mo   0.0000000000000000  0.2000000000000000  0.4999999999999999
 Mo   0.1000000000000000  0.2000000000000000  0.4999999999999999
 Mo   0.2000000000000001  0.2000000000000000  0.4999999999999999
 Mo   0.3000000000000001  0.2000000000000000  0.4999999999999999
 Mo   0.4000000000000001  0.2000000000000000  0.4999999999999999
 Mo   0.5000000000000000  0.2000000000000000  0.4999999999999999
 Mo   0.6000000000000001  0.2000000000000000  0.4999999999999999
 Mo   0.7000000000000001  0.2000000000000000  0.4999999999999999
 Mo   0.7999999999999999  0.2000000000000000  0.4999999999999999
 Mo   0.9000000000000000  0.2000000000000000  0.4999999999999999
 Mo   0.0000000000000000  0.2500000000000000  0.4999999999999999
 Mo   0.1000000000000000  0.2500000000000000  0.4999999999999999
 Mo   0.2000000000000000  0.2500000000000000  0.4999999999999999
 Mo   0.3000000000000000  0.2500000000000000  0.4999999999999999
 Mo   0.4000000000000001  0.2500000000000000  0.4999999999999999
 Mo   0.5000000000000001  0.2500000000000000  0.4999999999999999
 Mo   0.6000000000000001  0.2500000000000000  0.4999999999999999
 Mo   0.7000000000000002  0.2500000000000000  0.4999999999999999
 Mo   0.8000000000000000  0.2500000000000000  0.4999999999999999
 Mo   0.9000000000000001  0.2500000000000000  0.4999999999999999
 Mo   0.0000000000000000  0.3000000000000000  0.4999999999999999
 Mo   0.1000000000000001  0.3000000000000000  0.4999999999999999
 Mo   0.2000000000000001  0.3000000000000000  0.4999999999999999
 Mo   0.3000000000000000  0.3000000000000000  0.4999999999999999
 Mo   0.4000000000000001  0.3000000000000000  0.4999999999999999
 Mo   0.5000000000000001  0.3000000000000000  0.4999999999999999
 Mo   0.6000000000000001  0.3000000000000000  0.4999999999999999
 Mo   0.7000000000000002  0.3000000000000000  0.4999999999999999
 Mo   0.8000000000000000  0.3000000000000000  0.4999999999999999
 Mo   0.9000000000000001  0.3000000000000000  0.4999999999999999
 Mo   0.0000000000000001  0.3500000000000000  0.4999999999999999
 Mo   0.1000000000000000  0.3500000000000000  0.4999999999999999
 Mo   0.2000000000000000  0.3500000000000000  0.4999999999999999
 Mo   0.3000000000000001  0.3500000000000000  0.4999999999999999
 Mo   0.4000000000000001  0.3500000000000000  0.4999999999999999
 Mo   0.5000000000000001  0.3500000000000000  0.4999999999999999
 Mo   0.6000000000000002  0.3500000000000000  0.4999999999999999
 Mo   0.7000000000000003  0.3500000000000000  0.4999999999999999
 Mo   0.8000000000000002  0.3500000000000000  0.4999999999999999
 Mo   0.9000000000000002  0.3500000000000000  0.4999999999999999
 Mo   0.0000000000000000  0.4000000000000000  0.4999999999999999
 Mo   0.1000000000000000  0.4000000000000000  0.4999999999999999
 Mo   0.2000000000000001  0.4000000000000000  0.4999999999999999
 Mo   0.3000000000000002  0.4000000000000000  0.4999999999999999
 Mo   0.4000000000000001  0.4000000000000000  0.4999999999999999
 Mo   0.5000000000000001  0.4000000000000000  0.4999999999999999
 Mo   0.6000000000000002  0.4000000000000000  0.4999999999999999
 Mo   0.7000000000000001  0.4000000000000000  0.4999999999999999
 Mo   0.8000000000000002  0.4000000000000000  0.4999999999999999
 Mo   0.9000000000000002  0.4000000000000000  0.4999999999999999
 Mo   0.0000000000000001  0.4500000000000000  0.4999999999999999
 Mo   0.1000000000000001  0.4500000000000000  0.4999999999999999
 Mo   0.2000000000000001  0.4500000000000000  0.4999999999999999
 Mo   0.3000000000000002  0.4500000000000000  0.4999999999999999
 Mo   0.4000000000000001  0.4500000000000000  0.4999999999999999
 Mo   0.5000000000000001  0.4500000000000000  0.4999999999999999
 Mo   0.6000000000000001  0.4500000000000000  0.4999999999999999
 Mo   0.7000000000000002  0.4500000000000000  0.4999999999999999
 Mo   0.8000000000000003  0.4500000000000000  0.4999999999999999
 Mo   0.9000000000000004  0.4500000000000000  0.4999999999999999
 Mo   0.0000000000000000  0.5000000000000000  0.4999999999999999
 Mo   0.1000000000000001  0.5000000000000000  0.4999999999999999
 Mo   0.2000000000000001  0.5000000000000000  0.4999999999999999
 Mo   0.3000000000000002  0.5000000000000000  0.4999999999999999
 Mo   0.4000000000000000  0.5000000000000000  0.4999999999999999
 Mo   0.5000000000000000  0.5000000000000000  0.4999999999999999
 Mo   0.6000000000000001  0.5000000000000000  0.4999999999999999
 Mo   0.7000000000000002  0.5000000000000000  0.4999999999999999
 Mo   0.8000000000000003  0.5000000000000000  0.4999999999999999
 Mo   0.9000000000000004  0.5000000000000000  0.4999999999999999
 Mo   0.0000000000000000  0.5500000000000000  0.4999999999999999
 Mo   0.1000000000000001  0.5500000000000000  0.4999999999999999
 Mo   0.2000000000000001  0.5500000000000000  0.4999999999999999
 Mo   0.3000000000000001  0.5500000000000000  0.4999999999999999
 Mo   0.4000000000000002  0.5500000000000000  0.4999999999999999
 Mo   0.5000000000000000  0.5500000000000000  0.4999999999999999
 Mo   0.6000000000000001  0.5500000000000000  0.4999999999999999
 Mo   0.7000000000000002  0.5500000000000000  0.4999999999999999
 Mo   0.8000000000000003  0.5500000000000000  0.4999999999999999
 Mo   0.9000000000000004  0.5500000000000000  0.4999999999999999
 Mo   0.0000000000000000  0.6000000000000001  0.4999999999999999
 Mo   0.1000000000000001  0.6000000000000001  0.4999999999999999
 Mo   0.2000000000000002  0.6000000000000001  0.4999999999999999
 Mo   0.3000000000000000  0.6000000000000001  0.4999999999999999
 Mo   0.4000000000000001  0.6000000000000001  0.4999999999999999
 Mo   0.5000000000000000  0.6000000000000001  0.4999999999999999
 Mo   0.6000000000000001  0.6000000000000001  0.4999999999999999
 Mo   0.7000000000000002  0.6000000000000001  0.4999999999999999
 Mo   0.8000000000000003  0.6000000000000001  0.4999999999999999
 Mo   0.9000000000000004  0.6000000000000001  0.4999999999999999
 Mo   0.0000000000000002  0.6499999999999999  0.4999999999999999
 Mo   0.1000000000000001  0.6499999999999999  0.4999999999999999
 Mo   0.2000000000000001  0.6499999999999999  0.4999999999999999
 Mo   0.3000000000000002  0.6499999999999999  0.4999999999999999
 Mo   0.4000000000000001  0.6499999999999999  0.4999999999999999
 Mo   0.5000000000000002  0.6499999999999999  0.4999999999999999
 Mo   0.6000000000000003  0.6499999999999999  0.4999999999999999
 Mo   0.7000000000000004  0.6499999999999999  0.4999999999999999
 Mo   0.8000000000000003  0.6499999999999999  0.4999999999999999
 Mo   0.9000000000000004  0.6499999999999999  0.4999999999999999
 Mo   0.0000000000000001  0.7000000000000001  0.4999999999999999
 Mo   0.1000000000000001  0.7000000000000001  0.4999999999999999
 Mo   0.2000000000000001  0.7000000000000001  0.4999999999999999
 Mo   0.3000000000000002  0.7000000000000001  0.4999999999999999
 Mo   0.4000000000000000  0.7000000000000001  0.4999999999999999
 Mo   0.5000000000000001  0.7000000000000001  0.4999999999999999
 Mo   0.6000000000000002  0.7000000000000001  0.4999999999999999
 Mo   0.7000000000000003  0.7000000000000001  0.4999999999999999
 Mo   0.8000000000000002  0.7000000000000001  0.4999999999999999
 Mo   0.9000000000000002  0.7000000000000001  0.4999999999999999
 Mo   0.0000000000000001  0.7500000000000000  0.4999999999999999
 Mo   0.1000000000000001  0.7500000000000000  0.4999999999999999
 Mo   0.2000000000000001  0.7500000000000000  0.4999999999999999
 Mo   0.3000000000000000  0.7500000000000000  0.4999999999999999
 Mo   0.4000000000000001  0.7500000000000000  0.4999999999999999
 Mo   0.5000000000000002  0.7500000000000000  0.4999999999999999
 Mo   0.6000000000000003  0.7500000000000000  0.4999999999999999
 Mo   0.7000000000000004  0.7500000000000000  0.4999999999999999
 Mo   0.8000000000000003  0.7500000000000000  0.4999999999999999
 Mo   0.9000000000000001  0.7500000000000000  0.4999999999999999
 Mo   0.0000000000000001  0.8000000000000000  0.4999999999999999
 Mo   0.1000000000000001  0.8000000000000000  0.4999999999999999
 Mo   0.1999999999999999  0.8000000000000000  0.4999999999999999
 Mo   0.3000000000000000  0.8000000000000000  0.4999999999999999
 Mo   0.4000000000000001  0.8000000000000000  0.4999999999999999
 Mo   0.5000000000000002  0.8000000000000000  0.4999999999999999
 Mo   0.6000000000000003  0.8000000000000000  0.4999999999999999
 Mo   0.7000000000000004  0.8000000000000000  0.4999999999999999
 Mo   0.8000000000000003  0.8000000000000000  0.4999999999999999
 Mo   0.9000000000000001  0.8000000000000000  0.4999999999999999
 Mo   0.0000000000000001  0.8500000000000000  0.4999999999999999
 Mo   0.1000000000000002  0.8500000000000000  0.4999999999999999
 Mo   0.2000000000000003  0.8500000000000000  0.4999999999999999
 Mo   0.3000000000000001  0.8500000000000000  0.4999999999999999
 Mo   0.4000000000000002  0.8500000000000000  0.4999999999999999
 Mo   0.5000000000000003  0.8500000000000000  0.4999999999999999
 Mo   0.6000000000000004  0.8500000000000000  0.4999999999999999
 Mo   0.7000000000000005  0.8500000000000000  0.4999999999999999
 Mo   0.8000000000000002  0.8500000000000000  0.4999999999999999
 Mo   0.9000000000000002  0.8500000000000000  0.4999999999999999
 Mo   0.0000000000000002  0.8999999999999999  0.4999999999999999
 Mo   0.1000000000000000  0.8999999999999999  0.4999999999999999
 Mo   0.2000000000000001  0.8999999999999999  0.4999999999999999
 Mo   0.3000000000000002  0.8999999999999999  0.4999999999999999
 Mo   0.4000000000000003  0.8999999999999999  0.4999999999999999
 Mo   0.5000000000000002  0.8999999999999999  0.4999999999999999
 Mo   0.6000000000000003  0.8999999999999999  0.4999999999999999
 Mo   0.7000000000000004  0.8999999999999999  0.4999999999999999
 Mo   0.8000000000000003  0.8999999999999999  0.4999999999999999
 Mo   0.9000000000000004  0.8999999999999999  0.4999999999999999
 Mo   0.0000000000000001  0.9500000000000001  0.4999999999999999
 Mo   0.1000000000000000  0.9500000000000001  0.4999999999999999
 Mo   0.2000000000000001  0.9500000000000001  0.4999999999999999
 Mo   0.3000000000000002  0.9500000000000001  0.4999999999999999
 Mo   0.4000000000000002  0.9500000000000001  0.4999999999999999
 Mo   0.5000000000000001  0.9500000000000001  0.4999999999999999
 Mo   0.6000000000000002  0.9500000000000001  0.4999999999999999
 Mo   0.7000000000000001  0.9500000000000001  0.4999999999999999
 Mo   0.8000000000000002  0.9500000000000001  0.4999999999999999
 Mo   0.9000000000000002  0.9500000000000001  0.4999999999999999
  S   0.0336682222831797  0.0333333500000000  0.4300000000000000
  S   0.1333333000000000  0.0333333500000000  0.4300000000000000
  S   0.2333333000000000  0.0333333500000000  0.4300000000000000
  S   0.3333333000000001  0.0333333500000000  0.4300000000000000
  S   0.4333333000000000  0.0333333500000000  0.4300000000000000
  S   0.5333333000000000  0.0333333500000000  0.4300000000000000
  S   0.6333333000000001  0.0333333500000000  0.4300000000000000
  S   0.7333333000000000  0.0333333500000000  0.4300000000000000
  S   0.8333333000000002  0.0333333500000000  0.4300000000000000
  S   0.9333333000000001  0.0333333500000000  0.4300000000000000
  S   0.0333333000000000  0.0833333500000000  0.4300000000000000
  S   0.1333333000000000  0.0833333500000000  0.4300000000000000
  S   0.2333333000000000  0.0833333500000000  0.4300000000000000
  S   0.3333333000000001  0.0833333500000000  0.4300000000000000
  S   0.4333333000000000  0.0833333500000000  0.4300000000000000
  S   0.5333333000000001  0.0833333500000000  0.4300000000000000
  S   0.6333333000000001  0.0833333500000000  0.4300000000000000
  S   0.7333333000000000  0.0833333500000000  0.4300000000000000
  S   0.8333333000000002  0.0833333500000000  0.4300000000000000
  S   0.9333333000000001  0.0833333500000000  0.4300000000000000
  S   0.0333333000000000  0.1333333500000000  0.4300000000000000
  S   0.1333333000000000  0.1333333500000000  0.4300000000000000
  S   0.2333333000000000  0.1333333500000000  0.4300000000000000
  S   0.3333333000000001  0.1333333500000000  0.4300000000000000
  S   0.4333333000000000  0.1333333500000000  0.4300000000000000
  S   0.5333333000000001  0.1333333500000000  0.4300000000000000
  S   0.6333333000000000  0.1333333500000000  0.4300000000000000
  S   0.7333333000000000  0.1333333500000000  0.4300000000000000
  S   0.8333333000000002  0.1333333500000000  0.4300000000000000
  S   0.9333333000000001  0.1333333500000000  0.4300000000000000
  S   0.0333333000000000  0.1833333500000000  0.4300000000000000
  S   0.1333333000000000  0.1833333500000000  0.4300000000000000
  S   0.2333333000000001  0.1833333500000000  0.4300000000000000
  S   0.3333333000000001  0.1833333500000000  0.4300000000000000
  S   0.4333333000000001  0.1833333500000000  0.4300000000000000
  S   0.5333333000000001  0.1833333500000000  0.4300000000000000
  S   0.6333333000000000  0.1833333500000000  0.4300000000000000
  S   0.7333333000000000  0.1833333500000000  0.4300000000000000
  S   0.8333333000000001  0.1833333500000000  0.4300000000000000
  S   0.9333333000000001  0.1833333500000000  0.4300000000000000
  S   0.0333333000000000  0.2333333500000000  0.4300000000000000
  S   0.1333333000000000  0.2333333500000000  0.4300000000000000
  S   0.2333333000000000  0.2333333500000000  0.4300000000000000
  S   0.3333333000000001  0.2333333500000000  0.4300000000000000
  S   0.4333333000000000  0.2333333500000000  0.4300000000000000
  S   0.5333333000000000  0.2333333500000000  0.4300000000000000
  S   0.6333333000000001  0.2333333500000000  0.4300000000000000
  S   0.7333333000000001  0.2333333500000000  0.4300000000000000
  S   0.8333333000000002  0.2333333500000000  0.4300000000000000
  S   0.9333333000000000  0.2333333500000000  0.4300000000000000
  S   0.0333333000000001  0.2833333500000000  0.4300000000000000
  S   0.1333333000000000  0.2833333500000000  0.4300000000000000
  S   0.2333333000000001  0.2833333500000000  0.4300000000000000
  S   0.3333333000000001  0.2833333500000000  0.4300000000000000
  S   0.4333333000000000  0.2833333500000000  0.4300000000000000
  S   0.5333333000000000  0.2833333500000000  0.4300000000000000
  S   0.6333333000000001  0.2833333500000000  0.4300000000000000
  S   0.7333333000000001  0.2833333500000000  0.4300000000000000
  S   0.8333333000000002  0.2833333500000000  0.4300000000000000
  S   0.9333333000000000  0.2833333500000000  0.4300000000000000
  S   0.0333333000000000  0.3333333500000000  0.4300000000000000
  S   0.1333333000000000  0.3333333500000000  0.4300000000000000
  S   0.2333333000000000  0.3333333500000000  0.4300000000000000
  S   0.3333333000000001  0.3333333500000000  0.4300000000000000
  S   0.4333333000000000  0.3333333500000000  0.4300000000000000
  S   0.5333333000000000  0.3333333500000000  0.4300000000000000
  S   0.6333333000000001  0.3333333500000000  0.4300000000000000
  S   0.7333333000000001  0.3333333500000000  0.4300000000000000
  S   0.8333333000000002  0.3333333500000000  0.4300000000000000
  S   0.9333333000000000  0.3333333500000000  0.4300000000000000
  S   0.0333333000000001  0.3833333500000000  0.4300000000000000
  S   0.1333333000000001  0.3833333500000000  0.4300000000000000
  S   0.2333333000000001  0.3833333500000000  0.4300000000000000
  S   0.3333333000000002  0.3833333500000000  0.4300000000000000
  S   0.4333333000000000  0.3833333500000000  0.4300000000000000
  S   0.5333333000000001  0.3833333500000000  0.4300000000000000
  S   0.6333333000000001  0.3833333500000000  0.4300000000000000
  S   0.7333333000000000  0.3833333500000000  0.4300000000000000
  S   0.8333333000000003  0.3833333500000000  0.4300000000000000
  S   0.9333333000000001  0.3833333500000000  0.4300000000000000
  S   0.0333333000000001  0.4333333500000001  0.4300000000000000
  S   0.1333333000000001  0.4333333500000001  0.4300000000000000
  S   0.2333333000000001  0.4333333500000001  0.4300000000000000
  S   0.3333333000000001  0.4333333500000001  0.4300000000000000
  S   0.4333333000000000  0.4333333500000001  0.4300000000000000
  S   0.5333333000000001  0.4333333500000001  0.4300000000000000
  S   0.6333333000000001  0.4333333500000001  0.4300000000000000
  S   0.7333333000000000  0.4333333500000001  0.4300000000000000
  S   0.8333333000000003  0.4333333500000001  0.4300000000000000
  S   0.9333333000000001  0.4333333500000001  0.4300000000000000
  S   0.0333333000000001  0.4833333500000000  0.4300000000000000
  S   0.1333333000000001  0.4833333500000000  0.4300000000000000
  S   0.2333333000000002  0.4833333500000000  0.4300000000000000
  S   0.3333333000000002  0.4833333500000000  0.4300000000000000
  S   0.4333333000000001  0.4833333500000000  0.4300000000000000
  S   0.5333333000000001  0.4833333500000000  0.4300000000000000
  S   0.6333333000000002  0.4833333500000000  0.4300000000000000
  S   0.7333333000000001  0.4833333500000000  0.4300000000000000
  S   0.8333333000000004  0.4833333500000000  0.4300000000000000
  S   0.9333333000000003  0.4833333500000000  0.4300000000000000
  S   0.0333333000000000  0.5333333500000000  0.4300000000000000
  S   0.1333333000000001  0.5333333500000000  0.4300000000000000
  S   0.2333333000000001  0.5333333500000000  0.4300000000000000
  S   0.3333333000000001  0.5333333500000000  0.4300000000000000
  S   0.4333333000000000  0.5333333500000000  0.4300000000000000
  S   0.5333333000000001  0.5333333500000000  0.4300000000000000
  S   0.6333333000000000  0.5333333500000000  0.4300000000000000
  S   0.7333333000000001  0.5333333500000000  0.4300000000000000
  S   0.8333333000000002  0.5333333500000000  0.4300000000000000
  S   0.9333333000000003  0.5333333500000000  0.4300000000000000
  S   0.0333333000000002  0.5833333500000001  0.4300000000000000
  S   0.1333333000000001  0.5833333500000001  0.4300000000000000
  S   0.2333333000000001  0.5833333500000001  0.4300000000000000
  S   0.3333333000000002  0.5833333500000001  0.4300000000000000
  S   0.4333333000000001  0.5833333500000001  0.4300000000000000
  S   0.5333333000000001  0.5833333500000001  0.4300000000000000
  S   0.6333333000000002  0.5833333500000001  0.4300000000000000
  S   0.7333333000000001  0.5833333500000001  0.4300000000000000
  S   0.8333333000000004  0.5833333500000001  0.4300000000000000
  S   0.9333333000000003  0.5833333500000001  0.4300000000000000
  S   0.0333333000000001  0.6333333500000000  0.4300000000000000
  S   0.1333333000000000  0.6333333500000000  0.4300000000000000
  S   0.2333333000000000  0.6333333500000000  0.4300000000000000
  S   0.3333333000000001  0.6333333500000000  0.4300000000000000
  S   0.4333333000000001  0.6333333500000000  0.4300000000000000
  S   0.5333333000000000  0.6333333500000000  0.4300000000000000
  S   0.6333333000000001  0.6333333500000000  0.4300000000000000
  S   0.7333333000000002  0.6333333500000000  0.4300000000000000
  S   0.8333333000000003  0.6333333500000000  0.4300000000000000
  S   0.9333333000000001  0.6333333500000000  0.4300000000000000
  S   0.0333333000000002  0.6833333500000000  0.4300000000000000
  S   0.1333333000000002  0.6833333500000000  0.4300000000000000
  S   0.2333333000000001  0.6833333500000000  0.4300000000000000
  S   0.3333333000000001  0.6833333500000000  0.4300000000000000
  S   0.4333333000000000  0.6833333500000000  0.4300000000000000
  S   0.5333333000000001  0.6833333500000000  0.4300000000000000
  S   0.6333333000000002  0.6833333500000000  0.4300000000000000
  S   0.7333333000000003  0.6833333500000000  0.4300000000000000
  S   0.8333333000000004  0.6833333500000000  0.4300000000000000
  S   0.9333333000000003  0.6833333500000000  0.4300000000000000
  S   0.0333333000000000  0.7333333500000001  0.4300000000000000
  S   0.1333333000000001  0.7333333500000001  0.4300000000000000
  S   0.2333333000000001  0.7333333500000001  0.4300000000000000
  S   0.3333333000000001  0.7333333500000001  0.4300000000000000
  S   0.4333333000000001  0.7333333500000001  0.4300000000000000
  S   0.5333333000000002  0.7333333500000001  0.4300000000000000
  S   0.6333333000000001  0.7333333500000001  0.4300000000000000
  S   0.7333333000000002  0.7333333500000001  0.4300000000000000
  S   0.8333333000000001  0.7333333500000001  0.4300000000000000
  S   0.9333333000000001  0.7333333500000001  0.4300000000000000
  S   0.0333333000000000  0.7833333500000000  0.4300000000000000
  S   0.1333333000000001  0.7833333500000000  0.4300000000000000
  S   0.2333333000000001  0.7833333500000000  0.4300000000000000
  S   0.3333333000000002  0.7833333500000000  0.4300000000000000
  S   0.4333333000000000  0.7833333500000000  0.4300000000000000
  S   0.5333333000000001  0.7833333500000000  0.4300000000000000
  S   0.6333333000000002  0.7833333500000000  0.4300000000000000
  S   0.7333332999999999  0.7833333500000000  0.4300000000000000
  S   0.8333333000000002  0.7833333500000000  0.4300000000000000
  S   0.9333333000000000  0.7833333500000000  0.4300000000000000
  S   0.0333333000000001  0.8333333500000001  0.4300000000000000
  S   0.1333333000000001  0.8333333500000001  0.4300000000000000
  S   0.2333333000000000  0.8333333500000001  0.4300000000000000
  S   0.3333333000000002  0.8333333500000001  0.4300000000000000
  S   0.4333333000000000  0.8333333500000001  0.4300000000000000
  S   0.5333333000000001  0.8333333500000001  0.4300000000000000
  S   0.6333333000000002  0.8333333500000001  0.4300000000000000
  S   0.7333333000000001  0.8333333500000001  0.4300000000000000
  S   0.8333333000000002  0.8333333500000001  0.4300000000000000
  S   0.9333333000000003  0.8333333500000001  0.4300000000000000
  S   0.0333333000000001  0.8833333500000000  0.4300000000000000
  S   0.1333333000000001  0.8833333500000000  0.4300000000000000
  S   0.2333333000000002  0.8833333500000000  0.4300000000000000
  S   0.3333333000000000  0.8833333500000000  0.4300000000000000
  S   0.4333333000000001  0.8833333500000000  0.4300000000000000
  S   0.5333333000000002  0.8833333500000000  0.4300000000000000
  S   0.6333333000000003  0.8833333500000000  0.4300000000000000
  S   0.7333333000000000  0.8833333500000000  0.4300000000000000
  S   0.8333333000000003  0.8833333500000000  0.4300000000000000
  S   0.9333333000000001  0.8833333500000000  0.4300000000000000
  S   0.0333333000000002  0.9333333500000000  0.4300000000000000
  S   0.1333333000000002  0.9333333500000000  0.4300000000000000
  S   0.2333333000000002  0.9333333500000000  0.4300000000000000
  S   0.3333333000000001  0.9333333500000000  0.4300000000000000
  S   0.4333333000000002  0.9333333500000000  0.4300000000000000
  S   0.5333333000000003  0.9333333500000000  0.4300000000000000
  S   0.6333333000000002  0.9333333500000000  0.4300000000000000
  S   0.7333333000000001  0.9333333500000000  0.4300000000000000
  S   0.8333333000000004  0.9333333500000000  0.4300000000000000
  S   0.9333333000000003  0.9333333500000000  0.4300000000000000
  S   0.0333333000000000  0.9833333500000001  0.4300000000000000
  S   0.1333333000000001  0.9833333500000001  0.4300000000000000
  S   0.2333333000000002  0.9833333500000001  0.4300000000000000
  S   0.3333333000000003  0.9833333500000001  0.4300000000000000
  S   0.4333333000000001  0.9833333500000001  0.4300000000000000
  S   0.5333333000000002  0.9833333500000001  0.4300000000000000
  S   0.6333333000000001  0.9833333500000001  0.4300000000000000
  S   0.7333333000000000  0.9833333500000001  0.4300000000000000
  S   0.8333333000000003  0.9833333500000001  0.4300000000000000
  S   0.9333333000000001  0.9833333500000001  0.4300000000000000
  S   0.0666667000000000  0.0166666500000000  0.5700000000000000
  S   0.1666667000000000  0.0166666500000000  0.5700000000000000
  S   0.2666667000000000  0.0166666500000000  0.5700000000000000
  S   0.3666667000000000  0.0166666500000000  0.5700000000000000
  S   0.4666667000000000  0.0166666500000000  0.5700000000000000
  S   0.5666667000000001  0.0166666500000000  0.5700000000000000
  S   0.6666667000000001  0.0166666500000000  0.5700000000000000
  S   0.7666667000000001  0.0166666500000000  0.5700000000000000
  S   0.8666667000000002  0.0166666500000000  0.5700000000000000
  S   0.9666667000000001  0.0166666500000000  0.5700000000000000
  S   0.0666667000000000  0.0666666500000000  0.5700000000000000
  S   0.1666667000000000  0.0666666500000000  0.5700000000000000
  S   0.2666667000000000  0.0666666500000000  0.5700000000000000
  S   0.3666667000000001  0.0666666500000000  0.5700000000000000
  S   0.4666667000000002  0.0666666500000000  0.5700000000000000
  S   0.5666667000000001  0.0666666500000000  0.5700000000000000
  S   0.6666667000000001  0.0666666500000000  0.5700000000000000
  S   0.7666667000000001  0.0666666500000000  0.5700000000000000
  S   0.8666667000000001  0.0666666500000000  0.5700000000000000
  S   0.9666667000000001  0.0666666500000000  0.5700000000000000
  S   0.0666667000000001  0.1166666500000000  0.5700000000000000
  S   0.1666667000000000  0.1166666500000000  0.5700000000000000
  S   0.2666667000000000  0.1166666500000000  0.5700000000000000
  S   0.3666667000000001  0.1166666500000000  0.5700000000000000
  S   0.4666667000000001  0.1166666500000000  0.5700000000000000
  S   0.5666667000000002  0.1166666500000000  0.5700000000000000
  S   0.6666667000000002  0.1166666500000000  0.5700000000000000
  S   0.7666667000000003  0.1166666500000000  0.5700000000000000
  S   0.8666667000000002  0.1166666500000000  0.5700000000000000
  S   0.9666667000000000  0.1166666500000000  0.5700000000000000
  S   0.0666667000000000  0.1666666500000000  0.5700000000000000
  S   0.1666667000000000  0.1666666500000000  0.5700000000000000
  S   0.2666667000000000  0.1666666500000000  0.5700000000000000
  S   0.3666667000000001  0.1666666500000000  0.5700000000000000
  S   0.4666667000000001  0.1666666500000000  0.5700000000000000
  S   0.5666667000000002  0.1666666500000000  0.5700000000000000
  S   0.6666667000000002  0.1666666500000000  0.5700000000000000
  S   0.7666667000000001  0.1666666500000000  0.5700000000000000
  S   0.8666667000000003  0.1666666500000000  0.5700000000000000
  S   0.9666667000000000  0.1666666500000000  0.5700000000000000
  S   0.0666667000000001  0.2166666500000000  0.5700000000000000
  S   0.1666667000000000  0.2166666500000000  0.5700000000000000
  S   0.2666667000000000  0.2166666500000000  0.5700000000000000
  S   0.3666667000000000  0.2166666500000000  0.5700000000000000
  S   0.4666667000000000  0.2166666500000000  0.5700000000000000
  S   0.5666667000000002  0.2166666500000000  0.5700000000000000
  S   0.6666667000000001  0.2166666500000000  0.5700000000000000
  S   0.7666667000000001  0.2166666500000000  0.5700000000000000
  S   0.8666667000000002  0.2166666500000000  0.5700000000000000
  S   0.9666667000000001  0.2166666500000000  0.5700000000000000
  S   0.0666667000000000  0.2666666500000000  0.5700000000000000
  S   0.1666667000000001  0.2666666500000000  0.5700000000000000
  S   0.2666667000000000  0.2666666500000000  0.5700000000000000
  S   0.3666667000000000  0.2666666500000000  0.5700000000000000
  S   0.4666667000000001  0.2666666500000000  0.5700000000000000